NAME          COPTPROB
OBJSENSE
  MIN
ROWS
 N  __OBJ___
 L  C0      
 L  C48     
 L  C94     
 L  C112    
 L  C126    
 L  C165    
COLUMNS
    MARKER    'MARKER'                 'INTORG'
    x28       __OBJ___  467
    x28       C126      -1
    x28       C165      -1
    x101      __OBJ___  337
    x101      C48       -1
    x105      __OBJ___  570
    x105      C112      -1
    x105      C165      -1
    x108      __OBJ___  547
    x108      C0        -1
    x108      C48       -1
    x129      __OBJ___  111
    x129      C94       -1
    x129      C126      -1
    x182      __OBJ___  418
    x182      C0        -1
    x182      C94       -1
    x216      __OBJ___  413
    x216      C165      -1
    x229      __OBJ___  670
    x229      C48       -1
    x229      C112      -1
    x395      __OBJ___  94
    x395      C94       -1
    MARKER    'MARKER'                 'INTEND'
RHS
    RHS       __OBJ___  -31589
    RHS       C0        -1
    RHS       C48       -1
    RHS       C94       -1
    RHS       C112      -1
    RHS       C126      -1
    RHS       C165      -1
BOUNDS
 UP BOUND     x28       1
 UP BOUND     x101      1
 UP BOUND     x105      1
 UP BOUND     x108      1
 UP BOUND     x129      1
 UP BOUND     x182      1
 UP BOUND     x216      1
 UP BOUND     x229      1
 UP BOUND     x395      1
ENDATA
